(declare-fun t_ack!3749 () (_ BitVec 64))
(declare-fun t1_ack!3750 () (_ BitVec 64))
(declare-fun h_ack!3753 () (_ BitVec 64))
(declare-fun FPCHECK_FADD_OVERFLOW
             ((_ FloatingPoint 11 53) (_ FloatingPoint 11 53))
             Bool)
(declare-fun y1_ack!3752 () (_ BitVec 64))
(declare-fun y0_ack!3751 () (_ BitVec 64))
(assert (not (fp.lt (fp.sub roundNearestTiesToEven
                    ((_ to_fp 11 53) t1_ack!3750)
                    ((_ to_fp 11 53) t_ack!3749))
            ((_ to_fp 11 53) #x0000000000000000))))
(assert (fp.gt (fp.sub roundNearestTiesToEven
               ((_ to_fp 11 53) t1_ack!3750)
               ((_ to_fp 11 53) t_ack!3749))
       ((_ to_fp 11 53) #x0000000000000000)))
(assert (not (fp.lt ((_ to_fp 11 53) h_ack!3753) ((_ to_fp 11 53) #x0000000000000000))))
(assert (fp.geq (fp.sub roundNearestTiesToEven
                ((_ to_fp 11 53) t1_ack!3750)
                ((_ to_fp 11 53) t_ack!3749))
        ((_ to_fp 11 53) #x0000000000000000)))
(assert (fp.gt ((_ to_fp 11 53) h_ack!3753)
       (fp.sub roundNearestTiesToEven
               ((_ to_fp 11 53) t1_ack!3750)
               ((_ to_fp 11 53) t_ack!3749))))
(assert (let ((a!1 (fp.mul roundNearestTiesToEven
                   (fp.mul roundNearestTiesToEven
                           ((_ to_fp 11 53) #x4024000000000000)
                           ((_ to_fp 11 53) y1_ack!3752))
                   (fp.sub roundNearestTiesToEven
                           (fp.mul roundNearestTiesToEven
                                   ((_ to_fp 11 53) y0_ack!3751)
                                   ((_ to_fp 11 53) y0_ack!3751))
                           ((_ to_fp 11 53) #x3ff0000000000000))))
      (a!3 (fp.mul roundNearestTiesToEven
                   ((_ to_fp 11 53) #x3fac71c71c71c71c)
                   (fp.sub roundNearestTiesToEven
                           ((_ to_fp 11 53) t1_ack!3750)
                           ((_ to_fp 11 53) t_ack!3749)))))
(let ((a!2 (fp.mul roundNearestTiesToEven
                   ((_ to_fp 11 53) #x3fa0000000000000)
                   (fp.sub roundNearestTiesToEven
                           (fp.sub roundNearestTiesToEven
                                   ((_ to_fp 11 53) #x8000000000000000)
                                   ((_ to_fp 11 53) y0_ack!3751))
                           a!1)))
      (a!4 (fp.mul roundNearestTiesToEven
                   a!3
                   (fp.sub roundNearestTiesToEven
                           (fp.sub roundNearestTiesToEven
                                   ((_ to_fp 11 53) #x8000000000000000)
                                   ((_ to_fp 11 53) y0_ack!3751))
                           a!1)))
      (a!7 (fp.mul roundNearestTiesToEven
                   ((_ to_fp 11 53) #x3f95555555555555)
                   (fp.sub roundNearestTiesToEven
                           (fp.sub roundNearestTiesToEven
                                   ((_ to_fp 11 53) #x8000000000000000)
                                   ((_ to_fp 11 53) y0_ack!3751))
                           a!1)))
      (a!8 (fp.sub roundNearestTiesToEven
                   ((_ to_fp 11 53) #x8000000000000000)
                   (fp.add roundNearestTiesToEven
                           ((_ to_fp 11 53) y0_ack!3751)
                           (fp.mul roundNearestTiesToEven
                                   a!3
                                   ((_ to_fp 11 53) y1_ack!3752)))))
      (a!9 (fp.mul roundNearestTiesToEven
                   (fp.add roundNearestTiesToEven
                           ((_ to_fp 11 53) y0_ack!3751)
                           (fp.mul roundNearestTiesToEven
                                   a!3
                                   ((_ to_fp 11 53) y1_ack!3752)))
                   (fp.add roundNearestTiesToEven
                           ((_ to_fp 11 53) y0_ack!3751)
                           (fp.mul roundNearestTiesToEven
                                   a!3
                                   ((_ to_fp 11 53) y1_ack!3752)))))
      (a!15 (fp.mul roundNearestTiesToEven
                    ((_ to_fp 11 53) #x3fd4000000000000)
                    (fp.sub roundNearestTiesToEven
                            (fp.sub roundNearestTiesToEven
                                    ((_ to_fp 11 53) #x8000000000000000)
                                    ((_ to_fp 11 53) y0_ack!3751))
                            a!1))))
(let ((a!5 (fp.add roundNearestTiesToEven
                   (fp.mul roundNearestTiesToEven
                           ((_ to_fp 11 53) #x3f95555555555555)
                           ((_ to_fp 11 53) y1_ack!3752))
                   (fp.mul roundNearestTiesToEven
                           ((_ to_fp 11 53) #x3fb0000000000000)
                           (fp.add roundNearestTiesToEven
                                   ((_ to_fp 11 53) y1_ack!3752)
                                   a!4))))
      (a!10 (fp.mul roundNearestTiesToEven
                    (fp.mul roundNearestTiesToEven
                            ((_ to_fp 11 53) #x4024000000000000)
                            (fp.add roundNearestTiesToEven
                                    ((_ to_fp 11 53) y1_ack!3752)
                                    a!4))
                    (fp.sub roundNearestTiesToEven
                            a!9
                            ((_ to_fp 11 53) #x3ff0000000000000)))))
(let ((a!6 (fp.add roundNearestTiesToEven
                   ((_ to_fp 11 53) y0_ack!3751)
                   (fp.mul roundNearestTiesToEven
                           (fp.sub roundNearestTiesToEven
                                   ((_ to_fp 11 53) t1_ack!3750)
                                   ((_ to_fp 11 53) t_ack!3749))
                           a!5)))
      (a!11 (fp.mul roundNearestTiesToEven
                    (fp.sub roundNearestTiesToEven
                            ((_ to_fp 11 53) t1_ack!3750)
                            ((_ to_fp 11 53) t_ack!3749))
                    (fp.add roundNearestTiesToEven
                            a!7
                            (fp.mul roundNearestTiesToEven
                                    ((_ to_fp 11 53) #x3fb0000000000000)
                                    (fp.sub roundNearestTiesToEven a!8 a!10))))))
(let ((a!12 (fp.mul roundNearestTiesToEven
                    (fp.mul roundNearestTiesToEven
                            ((_ to_fp 11 53) #x4024000000000000)
                            (fp.add roundNearestTiesToEven
                                    ((_ to_fp 11 53) y1_ack!3752)
                                    a!11))
                    (fp.sub roundNearestTiesToEven
                            (fp.mul roundNearestTiesToEven a!6 a!6)
                            ((_ to_fp 11 53) #x3ff0000000000000))))
      (a!17 (fp.add roundNearestTiesToEven
                    (fp.mul roundNearestTiesToEven
                            ((_ to_fp 11 53) #x3fa0000000000000)
                            ((_ to_fp 11 53) y1_ack!3752))
                    (fp.mul roundNearestTiesToEven
                            ((_ to_fp 11 53) #x3fb8000000000000)
                            (fp.add roundNearestTiesToEven
                                    ((_ to_fp 11 53) y1_ack!3752)
                                    a!11)))))
(let ((a!13 (fp.mul roundNearestTiesToEven
                    ((_ to_fp 11 53) #x3fb8000000000000)
                    (fp.sub roundNearestTiesToEven
                            (fp.sub roundNearestTiesToEven
                                    ((_ to_fp 11 53) #x8000000000000000)
                                    a!6)
                            a!12)))
      (a!16 (fp.mul roundNearestTiesToEven
                    ((_ to_fp 11 53) #xbff2c00000000000)
                    (fp.sub roundNearestTiesToEven
                            (fp.sub roundNearestTiesToEven
                                    ((_ to_fp 11 53) #x8000000000000000)
                                    a!6)
                            a!12)))
      (a!18 (fp.add roundNearestTiesToEven
                    ((_ to_fp 11 53) y0_ack!3751)
                    (fp.mul roundNearestTiesToEven
                            (fp.sub roundNearestTiesToEven
                                    ((_ to_fp 11 53) t1_ack!3750)
                                    ((_ to_fp 11 53) t_ack!3749))
                            a!17))))
(let ((a!14 (fp.add roundNearestTiesToEven
                    ((_ to_fp 11 53) y1_ack!3752)
                    (fp.mul roundNearestTiesToEven
                            (fp.sub roundNearestTiesToEven
                                    ((_ to_fp 11 53) t1_ack!3750)
                                    ((_ to_fp 11 53) t_ack!3749))
                            (fp.add roundNearestTiesToEven a!2 a!13)))))
(let ((a!19 (fp.sub roundNearestTiesToEven
                    (fp.sub roundNearestTiesToEven
                            ((_ to_fp 11 53) #x8000000000000000)
                            a!18)
                    (fp.mul roundNearestTiesToEven
                            (fp.mul roundNearestTiesToEven
                                    ((_ to_fp 11 53) #x4024000000000000)
                                    a!14)
                            (fp.sub roundNearestTiesToEven
                                    (fp.mul roundNearestTiesToEven a!18 a!18)
                                    ((_ to_fp 11 53) #x3ff0000000000000))))))
(let ((a!20 (fp.mul roundNearestTiesToEven
                    (fp.sub roundNearestTiesToEven
                            ((_ to_fp 11 53) t1_ack!3750)
                            ((_ to_fp 11 53) t_ack!3749))
                    (fp.add roundNearestTiesToEven
                            (fp.add roundNearestTiesToEven a!15 a!16)
                            (fp.mul roundNearestTiesToEven
                                    ((_ to_fp 11 53) #x3ff2c00000000000)
                                    a!19)))))
  (FPCHECK_FADD_OVERFLOW
    (fp.add roundNearestTiesToEven
            (fp.mul roundNearestTiesToEven
                    ((_ to_fp 11 53) #x3f9152f31366e4d8)
                    ((_ to_fp 11 53) y1_ack!3752))
            (fp.mul roundNearestTiesToEven
                    ((_ to_fp 11 53) #x3fd8d28195fa13c2)
                    a!14))
    (fp.mul roundNearestTiesToEven
            ((_ to_fp 11 53) #x3fa26ba035d10b6d)
            (fp.add roundNearestTiesToEven ((_ to_fp 11 53) y1_ack!3752) a!20)))))))))))))

(check-sat)
(exit)
